NAME: Tnm55
COMMENT: Recalculated optimal tour for Tnm55, using concorde got a tour of length 605778.0
TYPE: TOUR
DIMENSION: 55
TOUR_SECTION
1
38
41
4
7
10
13
16
19
22
25
51
48
45
42
28
31
39
34
2
5
8
11
14
17
20
23
26
29
40
37
32
35
3
6
9
12
15
18
43
46
49
52
54
55
53
50
47
44
21
24
27
30
33
36
-1
EOF
